\ Equation counts
\     Total        E        G        L        N        X        C        B
\        40       40        0        0        0        0        0        0
\ 
\ Variable counts
\                  x        b        i      s1s      s2s       sc       si
\     Total     cont   binary  integer     sos1     sos2    scont     sint
\       120        0      120        0        0        0        0        0
\ 
\ Nonzero counts
\     Total    const       NL      DLL
\       240      120      120        0
\ 
Minimize
 obj: 0 b2 + 0 b3 + 0 b4 + 0 b5 + 0 b6 + 0 b7 + 0 b8 + 0 b9 + 0 b10 + 0 b11 + 0 b12 + 0 b13 + 0 b14 + 0 b15 
  + 0 b16 + 0 b17 + 0 b18 + 0 b19 + 0 b20 + 0 b21 + 0 b22 + 0 b23 + 0 b24 + 0 b25 + 0 b26 + 0 b27 + 0 b28 
  + 0 b29 + 0 b30 + 0 b31 + 0 b32 + 0 b33 + 0 b34 + 0 b35 + 0 b36 + 0 b37 + 0 b38 + 0 b39 + 0 b40 + 0 b41 
  + 0 b42 + 0 b43 + 0 b44 + 0 b45 + 0 b46 + 0 b47 + 0 b48 + 0 b49 + 0 b50 + 0 b51 + 0 b52 + 0 b53 + 0 b54 
  + 0 b55 + 0 b56 + 0 b57 + 0 b58 + 0 b59 + 0 b60 + 0 b61 + 0 b62 + 0 b63 + 0 b64 + 0 b65 + 0 b66 + 0 b67 
  + 0 b68 + 0 b69 + 0 b70 + 0 b71 + 0 b72 + 0 b73 + 0 b74 + 0 b75 + 0 b76 + 0 b77 + 0 b78 + 0 b79 + 0 b80 
  + 0 b81 + 0 b82 + 0 b83 + 0 b84 + 0 b85 + 0 b86 + 0 b87 + 0 b88 + 0 b89 + 0 b90 + 0 b91 + 0 b92 + 0 b93 
  + 0 b94 + 0 b95 + 0 b96 + 0 b97 + 0 b98 + 0 b99 + 0 b100 + 0 b101 + 0 b102 + 0 b103 + 0 b104 + 0 b105 
  + 0 b106 + 0 b107 + 0 b108 + 0 b109 + 0 b110 + 0 b111 + 0 b112 + 0 b113 + 0 b114 + 0 b115 + 0 b116 
  + 0 b117 + 0 b118 + 0 b119 + 0 b120 + 0 b121 + [ 2 b2 * b3 + 4 b2 * b4 + 6 b2 * b5 + 8 b2 * b6 + 10 b2 * b7 
  + 12 b2 * b8 + 14 b2 * b9 + 16 b2 * b10 + 18 b2 * b11 + 20 b2 * b12 + 22 b2 * b13 + 24 b2 * b14 + 26 b2 * b15 
  + 28 b2 * b16 + 30 b2 * b17 + 32 b2 * b18 + 34 b2 * b19 + 36 b2 * b20 + 38 b2 * b21 + 40 b2 * b22 + 42 b2 * b23 
  + 44 b2 * b24 + 46 b2 * b25 + 48 b2 * b26 + 50 b2 * b27 + 52 b2 * b28 + 54 b2 * b29 + 56 b2 * b30 + 58 b2 * b31 
  + 60 b2 * b32 + 62 b2 * b33 + 64 b2 * b34 + 66 b2 * b35 + 68 b2 * b36 + 70 b2 * b37 + 72 b2 * b38 + 74 b2 * b39 
  + 76 b2 * b40 + 78 b2 * b41 + 2 b3 * b4 + 4 b3 * b5 + 6 b3 * b6 + 8 b3 * b7 + 10 b3 * b8 + 12 b3 * b9 
  + 14 b3 * b10 + 16 b3 * b11 + 18 b3 * b12 + 20 b3 * b13 + 22 b3 * b14 + 24 b3 * b15 + 26 b3 * b16 + 28 b3 * b17 
  + 30 b3 * b18 + 32 b3 * b19 + 34 b3 * b20 + 36 b3 * b21 + 38 b3 * b22 + 40 b3 * b23 + 42 b3 * b24 + 44 b3 * b25 
  + 46 b3 * b26 + 48 b3 * b27 + 50 b3 * b28 + 52 b3 * b29 + 54 b3 * b30 + 56 b3 * b31 + 58 b3 * b32 + 60 b3 * b33 
  + 62 b3 * b34 + 64 b3 * b35 + 66 b3 * b36 + 68 b3 * b37 + 70 b3 * b38 + 72 b3 * b39 + 74 b3 * b40 + 76 b3 * b41 
  + 2 b4 * b5 + 4 b4 * b6 + 6 b4 * b7 + 8 b4 * b8 + 10 b4 * b9 + 12 b4 * b10 + 14 b4 * b11 + 16 b4 * b12 
  + 18 b4 * b13 + 20 b4 * b14 + 22 b4 * b15 + 24 b4 * b16 + 26 b4 * b17 + 28 b4 * b18 + 30 b4 * b19 + 32 b4 * b20 
  + 34 b4 * b21 + 36 b4 * b22 + 38 b4 * b23 + 40 b4 * b24 + 42 b4 * b25 + 44 b4 * b26 + 46 b4 * b27 + 48 b4 * b28 
  + 50 b4 * b29 + 52 b4 * b30 + 54 b4 * b31 + 56 b4 * b32 + 58 b4 * b33 + 60 b4 * b34 + 62 b4 * b35 + 64 b4 * b36 
  + 66 b4 * b37 + 68 b4 * b38 + 70 b4 * b39 + 72 b4 * b40 + 74 b4 * b41 + 2 b5 * b6 + 4 b5 * b7 + 6 b5 * b8 
  + 8 b5 * b9 + 10 b5 * b10 + 12 b5 * b11 + 14 b5 * b12 + 16 b5 * b13 + 18 b5 * b14 + 20 b5 * b15 + 22 b5 * b16 
  + 24 b5 * b17 + 26 b5 * b18 + 28 b5 * b19 + 30 b5 * b20 + 32 b5 * b21 + 34 b5 * b22 + 36 b5 * b23 + 38 b5 * b24 
  + 40 b5 * b25 + 42 b5 * b26 + 44 b5 * b27 + 46 b5 * b28 + 48 b5 * b29 + 50 b5 * b30 + 52 b5 * b31 + 54 b5 * b32 
  + 56 b5 * b33 + 58 b5 * b34 + 60 b5 * b35 + 62 b5 * b36 + 64 b5 * b37 + 66 b5 * b38 + 68 b5 * b39 + 70 b5 * b40 
  + 72 b5 * b41 + 2 b6 * b7 + 4 b6 * b8 + 6 b6 * b9 + 8 b6 * b10 + 10 b6 * b11 + 12 b6 * b12 + 14 b6 * b13 
  + 16 b6 * b14 + 18 b6 * b15 + 20 b6 * b16 + 22 b6 * b17 + 24 b6 * b18 + 26 b6 * b19 + 28 b6 * b20 + 30 b6 * b21 
  + 32 b6 * b22 + 34 b6 * b23 + 36 b6 * b24 + 38 b6 * b25 + 40 b6 * b26 + 42 b6 * b27 + 44 b6 * b28 + 46 b6 * b29 
  + 48 b6 * b30 + 50 b6 * b31 + 52 b6 * b32 + 54 b6 * b33 + 56 b6 * b34 + 58 b6 * b35 + 60 b6 * b36 + 62 b6 * b37 
  + 64 b6 * b38 + 66 b6 * b39 + 68 b6 * b40 + 70 b6 * b41 + 2 b7 * b8 + 4 b7 * b9 + 6 b7 * b10 + 8 b7 * b11 
  + 10 b7 * b12 + 12 b7 * b13 + 14 b7 * b14 + 16 b7 * b15 + 18 b7 * b16 + 20 b7 * b17 + 22 b7 * b18 + 24 b7 * b19 
  + 26 b7 * b20 + 28 b7 * b21 + 30 b7 * b22 + 32 b7 * b23 + 34 b7 * b24 + 36 b7 * b25 + 38 b7 * b26 + 40 b7 * b27 
  + 42 b7 * b28 + 44 b7 * b29 + 46 b7 * b30 + 48 b7 * b31 + 50 b7 * b32 + 52 b7 * b33 + 54 b7 * b34 + 56 b7 * b35 
  + 58 b7 * b36 + 60 b7 * b37 + 62 b7 * b38 + 64 b7 * b39 + 66 b7 * b40 + 68 b7 * b41 + 2 b8 * b9 + 4 b8 * b10 
  + 6 b8 * b11 + 8 b8 * b12 + 10 b8 * b13 + 12 b8 * b14 + 14 b8 * b15 + 16 b8 * b16 + 18 b8 * b17 + 20 b8 * b18 
  + 22 b8 * b19 + 24 b8 * b20 + 26 b8 * b21 + 28 b8 * b22 + 30 b8 * b23 + 32 b8 * b24 + 34 b8 * b25 + 36 b8 * b26 
  + 38 b8 * b27 + 40 b8 * b28 + 42 b8 * b29 + 44 b8 * b30 + 46 b8 * b31 + 48 b8 * b32 + 50 b8 * b33 + 52 b8 * b34 
  + 54 b8 * b35 + 56 b8 * b36 + 58 b8 * b37 + 60 b8 * b38 + 62 b8 * b39 + 64 b8 * b40 + 66 b8 * b41 + 2 b9 * b10 
  + 4 b9 * b11 + 6 b9 * b12 + 8 b9 * b13 + 10 b9 * b14 + 12 b9 * b15 + 14 b9 * b16 + 16 b9 * b17 + 18 b9 * b18 
  + 20 b9 * b19 + 22 b9 * b20 + 24 b9 * b21 + 26 b9 * b22 + 28 b9 * b23 + 30 b9 * b24 + 32 b9 * b25 + 34 b9 * b26 
  + 36 b9 * b27 + 38 b9 * b28 + 40 b9 * b29 + 42 b9 * b30 + 44 b9 * b31 + 46 b9 * b32 + 48 b9 * b33 + 50 b9 * b34 
  + 52 b9 * b35 + 54 b9 * b36 + 56 b9 * b37 + 58 b9 * b38 + 60 b9 * b39 + 62 b9 * b40 + 64 b9 * b41 + 2 b10 * b11 
  + 4 b10 * b12 + 6 b10 * b13 + 8 b10 * b14 + 10 b10 * b15 + 12 b10 * b16 + 14 b10 * b17 + 16 b10 * b18 
  + 18 b10 * b19 + 20 b10 * b20 + 22 b10 * b21 + 24 b10 * b22 + 26 b10 * b23 + 28 b10 * b24 + 30 b10 * b25 
  + 32 b10 * b26 + 34 b10 * b27 + 36 b10 * b28 + 38 b10 * b29 + 40 b10 * b30 + 42 b10 * b31 + 44 b10 * b32 
  + 46 b10 * b33 + 48 b10 * b34 + 50 b10 * b35 + 52 b10 * b36 + 54 b10 * b37 + 56 b10 * b38 + 58 b10 * b39 
  + 60 b10 * b40 + 62 b10 * b41 + 2 b11 * b12 + 4 b11 * b13 + 6 b11 * b14 + 8 b11 * b15 + 10 b11 * b16 
  + 12 b11 * b17 + 14 b11 * b18 + 16 b11 * b19 + 18 b11 * b20 + 20 b11 * b21 + 22 b11 * b22 + 24 b11 * b23 
  + 26 b11 * b24 + 28 b11 * b25 + 30 b11 * b26 + 32 b11 * b27 + 34 b11 * b28 + 36 b11 * b29 + 38 b11 * b30 
  + 40 b11 * b31 + 42 b11 * b32 + 44 b11 * b33 + 46 b11 * b34 + 48 b11 * b35 + 50 b11 * b36 + 52 b11 * b37 
  + 54 b11 * b38 + 56 b11 * b39 + 58 b11 * b40 + 60 b11 * b41 + 2 b12 * b13 + 4 b12 * b14 + 6 b12 * b15 
  + 8 b12 * b16 + 10 b12 * b17 + 12 b12 * b18 + 14 b12 * b19 + 16 b12 * b20 + 18 b12 * b21 + 20 b12 * b22 
  + 22 b12 * b23 + 24 b12 * b24 + 26 b12 * b25 + 28 b12 * b26 + 30 b12 * b27 + 32 b12 * b28 + 34 b12 * b29 
  + 36 b12 * b30 + 38 b12 * b31 + 40 b12 * b32 + 42 b12 * b33 + 44 b12 * b34 + 46 b12 * b35 + 48 b12 * b36 
  + 50 b12 * b37 + 52 b12 * b38 + 54 b12 * b39 + 56 b12 * b40 + 58 b12 * b41 + 2 b13 * b14 + 4 b13 * b15 
  + 6 b13 * b16 + 8 b13 * b17 + 10 b13 * b18 + 12 b13 * b19 + 14 b13 * b20 + 16 b13 * b21 + 18 b13 * b22 
  + 20 b13 * b23 + 22 b13 * b24 + 24 b13 * b25 + 26 b13 * b26 + 28 b13 * b27 + 30 b13 * b28 + 32 b13 * b29 
  + 34 b13 * b30 + 36 b13 * b31 + 38 b13 * b32 + 40 b13 * b33 + 42 b13 * b34 + 44 b13 * b35 + 46 b13 * b36 
  + 48 b13 * b37 + 50 b13 * b38 + 52 b13 * b39 + 54 b13 * b40 + 56 b13 * b41 + 2 b14 * b15 + 4 b14 * b16 
  + 6 b14 * b17 + 8 b14 * b18 + 10 b14 * b19 + 12 b14 * b20 + 14 b14 * b21 + 16 b14 * b22 + 18 b14 * b23 
  + 20 b14 * b24 + 22 b14 * b25 + 24 b14 * b26 + 26 b14 * b27 + 28 b14 * b28 + 30 b14 * b29 + 32 b14 * b30 
  + 34 b14 * b31 + 36 b14 * b32 + 38 b14 * b33 + 40 b14 * b34 + 42 b14 * b35 + 44 b14 * b36 + 46 b14 * b37 
  + 48 b14 * b38 + 50 b14 * b39 + 52 b14 * b40 + 54 b14 * b41 + 2 b15 * b16 + 4 b15 * b17 + 6 b15 * b18 
  + 8 b15 * b19 + 10 b15 * b20 + 12 b15 * b21 + 14 b15 * b22 + 16 b15 * b23 + 18 b15 * b24 + 20 b15 * b25 
  + 22 b15 * b26 + 24 b15 * b27 + 26 b15 * b28 + 28 b15 * b29 + 30 b15 * b30 + 32 b15 * b31 + 34 b15 * b32 
  + 36 b15 * b33 + 38 b15 * b34 + 40 b15 * b35 + 42 b15 * b36 + 44 b15 * b37 + 46 b15 * b38 + 48 b15 * b39 
  + 50 b15 * b40 + 52 b15 * b41 + 2 b16 * b17 + 4 b16 * b18 + 6 b16 * b19 + 8 b16 * b20 + 10 b16 * b21 
  + 12 b16 * b22 + 14 b16 * b23 + 16 b16 * b24 + 18 b16 * b25 + 20 b16 * b26 + 22 b16 * b27 + 24 b16 * b28 
  + 26 b16 * b29 + 28 b16 * b30 + 30 b16 * b31 + 32 b16 * b32 + 34 b16 * b33 + 36 b16 * b34 + 38 b16 * b35 
  + 40 b16 * b36 + 42 b16 * b37 + 44 b16 * b38 + 46 b16 * b39 + 48 b16 * b40 + 50 b16 * b41 + 2 b17 * b18 
  + 4 b17 * b19 + 6 b17 * b20 + 8 b17 * b21 + 10 b17 * b22 + 12 b17 * b23 + 14 b17 * b24 + 16 b17 * b25 
  + 18 b17 * b26 + 20 b17 * b27 + 22 b17 * b28 + 24 b17 * b29 + 26 b17 * b30 + 28 b17 * b31 + 30 b17 * b32 
  + 32 b17 * b33 + 34 b17 * b34 + 36 b17 * b35 + 38 b17 * b36 + 40 b17 * b37 + 42 b17 * b38 + 44 b17 * b39 
  + 46 b17 * b40 + 48 b17 * b41 + 2 b18 * b19 + 4 b18 * b20 + 6 b18 * b21 + 8 b18 * b22 + 10 b18 * b23 
  + 12 b18 * b24 + 14 b18 * b25 + 16 b18 * b26 + 18 b18 * b27 + 20 b18 * b28 + 22 b18 * b29 + 24 b18 * b30 
  + 26 b18 * b31 + 28 b18 * b32 + 30 b18 * b33 + 32 b18 * b34 + 34 b18 * b35 + 36 b18 * b36 + 38 b18 * b37 
  + 40 b18 * b38 + 42 b18 * b39 + 44 b18 * b40 + 46 b18 * b41 + 2 b19 * b20 + 4 b19 * b21 + 6 b19 * b22 
  + 8 b19 * b23 + 10 b19 * b24 + 12 b19 * b25 + 14 b19 * b26 + 16 b19 * b27 + 18 b19 * b28 + 20 b19 * b29 
  + 22 b19 * b30 + 24 b19 * b31 + 26 b19 * b32 + 28 b19 * b33 + 30 b19 * b34 + 32 b19 * b35 + 34 b19 * b36 
  + 36 b19 * b37 + 38 b19 * b38 + 40 b19 * b39 + 42 b19 * b40 + 44 b19 * b41 + 2 b20 * b21 + 4 b20 * b22 
  + 6 b20 * b23 + 8 b20 * b24 + 10 b20 * b25 + 12 b20 * b26 + 14 b20 * b27 + 16 b20 * b28 + 18 b20 * b29 
  + 20 b20 * b30 + 22 b20 * b31 + 24 b20 * b32 + 26 b20 * b33 + 28 b20 * b34 + 30 b20 * b35 + 32 b20 * b36 
  + 34 b20 * b37 + 36 b20 * b38 + 38 b20 * b39 + 40 b20 * b40 + 42 b20 * b41 + 2 b21 * b22 + 4 b21 * b23 
  + 6 b21 * b24 + 8 b21 * b25 + 10 b21 * b26 + 12 b21 * b27 + 14 b21 * b28 + 16 b21 * b29 + 18 b21 * b30 
  + 20 b21 * b31 + 22 b21 * b32 + 24 b21 * b33 + 26 b21 * b34 + 28 b21 * b35 + 30 b21 * b36 + 32 b21 * b37 
  + 34 b21 * b38 + 36 b21 * b39 + 38 b21 * b40 + 40 b21 * b41 + 2 b22 * b23 + 4 b22 * b24 + 6 b22 * b25 
  + 8 b22 * b26 + 10 b22 * b27 + 12 b22 * b28 + 14 b22 * b29 + 16 b22 * b30 + 18 b22 * b31 + 20 b22 * b32 
  + 22 b22 * b33 + 24 b22 * b34 + 26 b22 * b35 + 28 b22 * b36 + 30 b22 * b37 + 32 b22 * b38 + 34 b22 * b39 
  + 36 b22 * b40 + 38 b22 * b41 + 2 b23 * b24 + 4 b23 * b25 + 6 b23 * b26 + 8 b23 * b27 + 10 b23 * b28 
  + 12 b23 * b29 + 14 b23 * b30 + 16 b23 * b31 + 18 b23 * b32 + 20 b23 * b33 + 22 b23 * b34 + 24 b23 * b35 
  + 26 b23 * b36 + 28 b23 * b37 + 30 b23 * b38 + 32 b23 * b39 + 34 b23 * b40 + 36 b23 * b41 + 2 b24 * b25 
  + 4 b24 * b26 + 6 b24 * b27 + 8 b24 * b28 + 10 b24 * b29 + 12 b24 * b30 + 14 b24 * b31 + 16 b24 * b32 
  + 18 b24 * b33 + 20 b24 * b34 + 22 b24 * b35 + 24 b24 * b36 + 26 b24 * b37 + 28 b24 * b38 + 30 b24 * b39 
  + 32 b24 * b40 + 34 b24 * b41 + 2 b25 * b26 + 4 b25 * b27 + 6 b25 * b28 + 8 b25 * b29 + 10 b25 * b30 
  + 12 b25 * b31 + 14 b25 * b32 + 16 b25 * b33 + 18 b25 * b34 + 20 b25 * b35 + 22 b25 * b36 + 24 b25 * b37 
  + 26 b25 * b38 + 28 b25 * b39 + 30 b25 * b40 + 32 b25 * b41 + 2 b26 * b27 + 4 b26 * b28 + 6 b26 * b29 
  + 8 b26 * b30 + 10 b26 * b31 + 12 b26 * b32 + 14 b26 * b33 + 16 b26 * b34 + 18 b26 * b35 + 20 b26 * b36 
  + 22 b26 * b37 + 24 b26 * b38 + 26 b26 * b39 + 28 b26 * b40 + 30 b26 * b41 + 2 b27 * b28 + 4 b27 * b29 
  + 6 b27 * b30 + 8 b27 * b31 + 10 b27 * b32 + 12 b27 * b33 + 14 b27 * b34 + 16 b27 * b35 + 18 b27 * b36 
  + 20 b27 * b37 + 22 b27 * b38 + 24 b27 * b39 + 26 b27 * b40 + 28 b27 * b41 + 2 b28 * b29 + 4 b28 * b30 
  + 6 b28 * b31 + 8 b28 * b32 + 10 b28 * b33 + 12 b28 * b34 + 14 b28 * b35 + 16 b28 * b36 + 18 b28 * b37 
  + 20 b28 * b38 + 22 b28 * b39 + 24 b28 * b40 + 26 b28 * b41 + 2 b29 * b30 + 4 b29 * b31 + 6 b29 * b32 
  + 8 b29 * b33 + 10 b29 * b34 + 12 b29 * b35 + 14 b29 * b36 + 16 b29 * b37 + 18 b29 * b38 + 20 b29 * b39 
  + 22 b29 * b40 + 24 b29 * b41 + 2 b30 * b31 + 4 b30 * b32 + 6 b30 * b33 + 8 b30 * b34 + 10 b30 * b35 
  + 12 b30 * b36 + 14 b30 * b37 + 16 b30 * b38 + 18 b30 * b39 + 20 b30 * b40 + 22 b30 * b41 + 2 b31 * b32 
  + 4 b31 * b33 + 6 b31 * b34 + 8 b31 * b35 + 10 b31 * b36 + 12 b31 * b37 + 14 b31 * b38 + 16 b31 * b39 
  + 18 b31 * b40 + 20 b31 * b41 + 2 b32 * b33 + 4 b32 * b34 + 6 b32 * b35 + 8 b32 * b36 + 10 b32 * b37 
  + 12 b32 * b38 + 14 b32 * b39 + 16 b32 * b40 + 18 b32 * b41 + 2 b33 * b34 + 4 b33 * b35 + 6 b33 * b36 
  + 8 b33 * b37 + 10 b33 * b38 + 12 b33 * b39 + 14 b33 * b40 + 16 b33 * b41 + 2 b34 * b35 + 4 b34 * b36 
  + 6 b34 * b37 + 8 b34 * b38 + 10 b34 * b39 + 12 b34 * b40 + 14 b34 * b41 + 2 b35 * b36 + 4 b35 * b37 
  + 6 b35 * b38 + 8 b35 * b39 + 10 b35 * b40 + 12 b35 * b41 + 2 b36 * b37 + 4 b36 * b38 + 6 b36 * b39 
  + 8 b36 * b40 + 10 b36 * b41 + 2 b37 * b38 + 4 b37 * b39 + 6 b37 * b40 + 8 b37 * b41 + 2 b38 * b39 
  + 4 b38 * b40 + 6 b38 * b41 + 2 b39 * b40 + 4 b39 * b41 + 2 b40 * b41 + 2 b42 * b43 + 4 b42 * b44 + 6 b42 * b45 
  + 8 b42 * b46 + 10 b42 * b47 + 12 b42 * b48 + 14 b42 * b49 + 16 b42 * b50 + 18 b42 * b51 + 20 b42 * b52 
  + 22 b42 * b53 + 24 b42 * b54 + 26 b42 * b55 + 28 b42 * b56 + 30 b42 * b57 + 32 b42 * b58 + 34 b42 * b59 
  + 36 b42 * b60 + 38 b42 * b61 + 40 b42 * b62 + 42 b42 * b63 + 44 b42 * b64 + 46 b42 * b65 + 48 b42 * b66 
  + 50 b42 * b67 + 52 b42 * b68 + 54 b42 * b69 + 56 b42 * b70 + 58 b42 * b71 + 60 b42 * b72 + 62 b42 * b73 
  + 64 b42 * b74 + 66 b42 * b75 + 68 b42 * b76 + 70 b42 * b77 + 72 b42 * b78 + 74 b42 * b79 + 76 b42 * b80 
  + 78 b42 * b81 + 2 b43 * b44 + 4 b43 * b45 + 6 b43 * b46 + 8 b43 * b47 + 10 b43 * b48 + 12 b43 * b49 
  + 14 b43 * b50 + 16 b43 * b51 + 18 b43 * b52 + 20 b43 * b53 + 22 b43 * b54 + 24 b43 * b55 + 26 b43 * b56 
  + 28 b43 * b57 + 30 b43 * b58 + 32 b43 * b59 + 34 b43 * b60 + 36 b43 * b61 + 38 b43 * b62 + 40 b43 * b63 
  + 42 b43 * b64 + 44 b43 * b65 + 46 b43 * b66 + 48 b43 * b67 + 50 b43 * b68 + 52 b43 * b69 + 54 b43 * b70 
  + 56 b43 * b71 + 58 b43 * b72 + 60 b43 * b73 + 62 b43 * b74 + 64 b43 * b75 + 66 b43 * b76 + 68 b43 * b77 
  + 70 b43 * b78 + 72 b43 * b79 + 74 b43 * b80 + 76 b43 * b81 + 2 b44 * b45 + 4 b44 * b46 + 6 b44 * b47 
  + 8 b44 * b48 + 10 b44 * b49 + 12 b44 * b50 + 14 b44 * b51 + 16 b44 * b52 + 18 b44 * b53 + 20 b44 * b54 
  + 22 b44 * b55 + 24 b44 * b56 + 26 b44 * b57 + 28 b44 * b58 + 30 b44 * b59 + 32 b44 * b60 + 34 b44 * b61 
  + 36 b44 * b62 + 38 b44 * b63 + 40 b44 * b64 + 42 b44 * b65 + 44 b44 * b66 + 46 b44 * b67 + 48 b44 * b68 
  + 50 b44 * b69 + 52 b44 * b70 + 54 b44 * b71 + 56 b44 * b72 + 58 b44 * b73 + 60 b44 * b74 + 62 b44 * b75 
  + 64 b44 * b76 + 66 b44 * b77 + 68 b44 * b78 + 70 b44 * b79 + 72 b44 * b80 + 74 b44 * b81 + 2 b45 * b46 
  + 4 b45 * b47 + 6 b45 * b48 + 8 b45 * b49 + 10 b45 * b50 + 12 b45 * b51 + 14 b45 * b52 + 16 b45 * b53 
  + 18 b45 * b54 + 20 b45 * b55 + 22 b45 * b56 + 24 b45 * b57 + 26 b45 * b58 + 28 b45 * b59 + 30 b45 * b60 
  + 32 b45 * b61 + 34 b45 * b62 + 36 b45 * b63 + 38 b45 * b64 + 40 b45 * b65 + 42 b45 * b66 + 44 b45 * b67 
  + 46 b45 * b68 + 48 b45 * b69 + 50 b45 * b70 + 52 b45 * b71 + 54 b45 * b72 + 56 b45 * b73 + 58 b45 * b74 
  + 60 b45 * b75 + 62 b45 * b76 + 64 b45 * b77 + 66 b45 * b78 + 68 b45 * b79 + 70 b45 * b80 + 72 b45 * b81 
  + 2 b46 * b47 + 4 b46 * b48 + 6 b46 * b49 + 8 b46 * b50 + 10 b46 * b51 + 12 b46 * b52 + 14 b46 * b53 
  + 16 b46 * b54 + 18 b46 * b55 + 20 b46 * b56 + 22 b46 * b57 + 24 b46 * b58 + 26 b46 * b59 + 28 b46 * b60 
  + 30 b46 * b61 + 32 b46 * b62 + 34 b46 * b63 + 36 b46 * b64 + 38 b46 * b65 + 40 b46 * b66 + 42 b46 * b67 
  + 44 b46 * b68 + 46 b46 * b69 + 48 b46 * b70 + 50 b46 * b71 + 52 b46 * b72 + 54 b46 * b73 + 56 b46 * b74 
  + 58 b46 * b75 + 60 b46 * b76 + 62 b46 * b77 + 64 b46 * b78 + 66 b46 * b79 + 68 b46 * b80 + 70 b46 * b81 
  + 2 b47 * b48 + 4 b47 * b49 + 6 b47 * b50 + 8 b47 * b51 + 10 b47 * b52 + 12 b47 * b53 + 14 b47 * b54 
  + 16 b47 * b55 + 18 b47 * b56 + 20 b47 * b57 + 22 b47 * b58 + 24 b47 * b59 + 26 b47 * b60 + 28 b47 * b61 
  + 30 b47 * b62 + 32 b47 * b63 + 34 b47 * b64 + 36 b47 * b65 + 38 b47 * b66 + 40 b47 * b67 + 42 b47 * b68 
  + 44 b47 * b69 + 46 b47 * b70 + 48 b47 * b71 + 50 b47 * b72 + 52 b47 * b73 + 54 b47 * b74 + 56 b47 * b75 
  + 58 b47 * b76 + 60 b47 * b77 + 62 b47 * b78 + 64 b47 * b79 + 66 b47 * b80 + 68 b47 * b81 + 2 b48 * b49 
  + 4 b48 * b50 + 6 b48 * b51 + 8 b48 * b52 + 10 b48 * b53 + 12 b48 * b54 + 14 b48 * b55 + 16 b48 * b56 
  + 18 b48 * b57 + 20 b48 * b58 + 22 b48 * b59 + 24 b48 * b60 + 26 b48 * b61 + 28 b48 * b62 + 30 b48 * b63 
  + 32 b48 * b64 + 34 b48 * b65 + 36 b48 * b66 + 38 b48 * b67 + 40 b48 * b68 + 42 b48 * b69 + 44 b48 * b70 
  + 46 b48 * b71 + 48 b48 * b72 + 50 b48 * b73 + 52 b48 * b74 + 54 b48 * b75 + 56 b48 * b76 + 58 b48 * b77 
  + 60 b48 * b78 + 62 b48 * b79 + 64 b48 * b80 + 66 b48 * b81 + 2 b49 * b50 + 4 b49 * b51 + 6 b49 * b52 
  + 8 b49 * b53 + 10 b49 * b54 + 12 b49 * b55 + 14 b49 * b56 + 16 b49 * b57 + 18 b49 * b58 + 20 b49 * b59 
  + 22 b49 * b60 + 24 b49 * b61 + 26 b49 * b62 + 28 b49 * b63 + 30 b49 * b64 + 32 b49 * b65 + 34 b49 * b66 
  + 36 b49 * b67 + 38 b49 * b68 + 40 b49 * b69 + 42 b49 * b70 + 44 b49 * b71 + 46 b49 * b72 + 48 b49 * b73 
  + 50 b49 * b74 + 52 b49 * b75 + 54 b49 * b76 + 56 b49 * b77 + 58 b49 * b78 + 60 b49 * b79 + 62 b49 * b80 
  + 64 b49 * b81 + 2 b50 * b51 + 4 b50 * b52 + 6 b50 * b53 + 8 b50 * b54 + 10 b50 * b55 + 12 b50 * b56 
  + 14 b50 * b57 + 16 b50 * b58 + 18 b50 * b59 + 20 b50 * b60 + 22 b50 * b61 + 24 b50 * b62 + 26 b50 * b63 
  + 28 b50 * b64 + 30 b50 * b65 + 32 b50 * b66 + 34 b50 * b67 + 36 b50 * b68 + 38 b50 * b69 + 40 b50 * b70 
  + 42 b50 * b71 + 44 b50 * b72 + 46 b50 * b73 + 48 b50 * b74 + 50 b50 * b75 + 52 b50 * b76 + 54 b50 * b77 
  + 56 b50 * b78 + 58 b50 * b79 + 60 b50 * b80 + 62 b50 * b81 + 2 b51 * b52 + 4 b51 * b53 + 6 b51 * b54 
  + 8 b51 * b55 + 10 b51 * b56 + 12 b51 * b57 + 14 b51 * b58 + 16 b51 * b59 + 18 b51 * b60 + 20 b51 * b61 
  + 22 b51 * b62 + 24 b51 * b63 + 26 b51 * b64 + 28 b51 * b65 + 30 b51 * b66 + 32 b51 * b67 + 34 b51 * b68 
  + 36 b51 * b69 + 38 b51 * b70 + 40 b51 * b71 + 42 b51 * b72 + 44 b51 * b73 + 46 b51 * b74 + 48 b51 * b75 
  + 50 b51 * b76 + 52 b51 * b77 + 54 b51 * b78 + 56 b51 * b79 + 58 b51 * b80 + 60 b51 * b81 + 2 b52 * b53 
  + 4 b52 * b54 + 6 b52 * b55 + 8 b52 * b56 + 10 b52 * b57 + 12 b52 * b58 + 14 b52 * b59 + 16 b52 * b60 
  + 18 b52 * b61 + 20 b52 * b62 + 22 b52 * b63 + 24 b52 * b64 + 26 b52 * b65 + 28 b52 * b66 + 30 b52 * b67 
  + 32 b52 * b68 + 34 b52 * b69 + 36 b52 * b70 + 38 b52 * b71 + 40 b52 * b72 + 42 b52 * b73 + 44 b52 * b74 
  + 46 b52 * b75 + 48 b52 * b76 + 50 b52 * b77 + 52 b52 * b78 + 54 b52 * b79 + 56 b52 * b80 + 58 b52 * b81 
  + 2 b53 * b54 + 4 b53 * b55 + 6 b53 * b56 + 8 b53 * b57 + 10 b53 * b58 + 12 b53 * b59 + 14 b53 * b60 
  + 16 b53 * b61 + 18 b53 * b62 + 20 b53 * b63 + 22 b53 * b64 + 24 b53 * b65 + 26 b53 * b66 + 28 b53 * b67 
  + 30 b53 * b68 + 32 b53 * b69 + 34 b53 * b70 + 36 b53 * b71 + 38 b53 * b72 + 40 b53 * b73 + 42 b53 * b74 
  + 44 b53 * b75 + 46 b53 * b76 + 48 b53 * b77 + 50 b53 * b78 + 52 b53 * b79 + 54 b53 * b80 + 56 b53 * b81 
  + 2 b54 * b55 + 4 b54 * b56 + 6 b54 * b57 + 8 b54 * b58 + 10 b54 * b59 + 12 b54 * b60 + 14 b54 * b61 
  + 16 b54 * b62 + 18 b54 * b63 + 20 b54 * b64 + 22 b54 * b65 + 24 b54 * b66 + 26 b54 * b67 + 28 b54 * b68 
  + 30 b54 * b69 + 32 b54 * b70 + 34 b54 * b71 + 36 b54 * b72 + 38 b54 * b73 + 40 b54 * b74 + 42 b54 * b75 
  + 44 b54 * b76 + 46 b54 * b77 + 48 b54 * b78 + 50 b54 * b79 + 52 b54 * b80 + 54 b54 * b81 + 2 b55 * b56 
  + 4 b55 * b57 + 6 b55 * b58 + 8 b55 * b59 + 10 b55 * b60 + 12 b55 * b61 + 14 b55 * b62 + 16 b55 * b63 
  + 18 b55 * b64 + 20 b55 * b65 + 22 b55 * b66 + 24 b55 * b67 + 26 b55 * b68 + 28 b55 * b69 + 30 b55 * b70 
  + 32 b55 * b71 + 34 b55 * b72 + 36 b55 * b73 + 38 b55 * b74 + 40 b55 * b75 + 42 b55 * b76 + 44 b55 * b77 
  + 46 b55 * b78 + 48 b55 * b79 + 50 b55 * b80 + 52 b55 * b81 + 2 b56 * b57 + 4 b56 * b58 + 6 b56 * b59 
  + 8 b56 * b60 + 10 b56 * b61 + 12 b56 * b62 + 14 b56 * b63 + 16 b56 * b64 + 18 b56 * b65 + 20 b56 * b66 
  + 22 b56 * b67 + 24 b56 * b68 + 26 b56 * b69 + 28 b56 * b70 + 30 b56 * b71 + 32 b56 * b72 + 34 b56 * b73 
  + 36 b56 * b74 + 38 b56 * b75 + 40 b56 * b76 + 42 b56 * b77 + 44 b56 * b78 + 46 b56 * b79 + 48 b56 * b80 
  + 50 b56 * b81 + 2 b57 * b58 + 4 b57 * b59 + 6 b57 * b60 + 8 b57 * b61 + 10 b57 * b62 + 12 b57 * b63 
  + 14 b57 * b64 + 16 b57 * b65 + 18 b57 * b66 + 20 b57 * b67 + 22 b57 * b68 + 24 b57 * b69 + 26 b57 * b70 
  + 28 b57 * b71 + 30 b57 * b72 + 32 b57 * b73 + 34 b57 * b74 + 36 b57 * b75 + 38 b57 * b76 + 40 b57 * b77 
  + 42 b57 * b78 + 44 b57 * b79 + 46 b57 * b80 + 48 b57 * b81 + 2 b58 * b59 + 4 b58 * b60 + 6 b58 * b61 
  + 8 b58 * b62 + 10 b58 * b63 + 12 b58 * b64 + 14 b58 * b65 + 16 b58 * b66 + 18 b58 * b67 + 20 b58 * b68 
  + 22 b58 * b69 + 24 b58 * b70 + 26 b58 * b71 + 28 b58 * b72 + 30 b58 * b73 + 32 b58 * b74 + 34 b58 * b75 
  + 36 b58 * b76 + 38 b58 * b77 + 40 b58 * b78 + 42 b58 * b79 + 44 b58 * b80 + 46 b58 * b81 + 2 b59 * b60 
  + 4 b59 * b61 + 6 b59 * b62 + 8 b59 * b63 + 10 b59 * b64 + 12 b59 * b65 + 14 b59 * b66 + 16 b59 * b67 
  + 18 b59 * b68 + 20 b59 * b69 + 22 b59 * b70 + 24 b59 * b71 + 26 b59 * b72 + 28 b59 * b73 + 30 b59 * b74 
  + 32 b59 * b75 + 34 b59 * b76 + 36 b59 * b77 + 38 b59 * b78 + 40 b59 * b79 + 42 b59 * b80 + 44 b59 * b81 
  + 2 b60 * b61 + 4 b60 * b62 + 6 b60 * b63 + 8 b60 * b64 + 10 b60 * b65 + 12 b60 * b66 + 14 b60 * b67 
  + 16 b60 * b68 + 18 b60 * b69 + 20 b60 * b70 + 22 b60 * b71 + 24 b60 * b72 + 26 b60 * b73 + 28 b60 * b74 
  + 30 b60 * b75 + 32 b60 * b76 + 34 b60 * b77 + 36 b60 * b78 + 38 b60 * b79 + 40 b60 * b80 + 42 b60 * b81 
  + 2 b61 * b62 + 4 b61 * b63 + 6 b61 * b64 + 8 b61 * b65 + 10 b61 * b66 + 12 b61 * b67 + 14 b61 * b68 
  + 16 b61 * b69 + 18 b61 * b70 + 20 b61 * b71 + 22 b61 * b72 + 24 b61 * b73 + 26 b61 * b74 + 28 b61 * b75 
  + 30 b61 * b76 + 32 b61 * b77 + 34 b61 * b78 + 36 b61 * b79 + 38 b61 * b80 + 40 b61 * b81 + 2 b62 * b63 
  + 4 b62 * b64 + 6 b62 * b65 + 8 b62 * b66 + 10 b62 * b67 + 12 b62 * b68 + 14 b62 * b69 + 16 b62 * b70 
  + 18 b62 * b71 + 20 b62 * b72 + 22 b62 * b73 + 24 b62 * b74 + 26 b62 * b75 + 28 b62 * b76 + 30 b62 * b77 
  + 32 b62 * b78 + 34 b62 * b79 + 36 b62 * b80 + 38 b62 * b81 + 2 b63 * b64 + 4 b63 * b65 + 6 b63 * b66 
  + 8 b63 * b67 + 10 b63 * b68 + 12 b63 * b69 + 14 b63 * b70 + 16 b63 * b71 + 18 b63 * b72 + 20 b63 * b73 
  + 22 b63 * b74 + 24 b63 * b75 + 26 b63 * b76 + 28 b63 * b77 + 30 b63 * b78 + 32 b63 * b79 + 34 b63 * b80 
  + 36 b63 * b81 + 2 b64 * b65 + 4 b64 * b66 + 6 b64 * b67 + 8 b64 * b68 + 10 b64 * b69 + 12 b64 * b70 
  + 14 b64 * b71 + 16 b64 * b72 + 18 b64 * b73 + 20 b64 * b74 + 22 b64 * b75 + 24 b64 * b76 + 26 b64 * b77 
  + 28 b64 * b78 + 30 b64 * b79 + 32 b64 * b80 + 34 b64 * b81 + 2 b65 * b66 + 4 b65 * b67 + 6 b65 * b68 
  + 8 b65 * b69 + 10 b65 * b70 + 12 b65 * b71 + 14 b65 * b72 + 16 b65 * b73 + 18 b65 * b74 + 20 b65 * b75 
  + 22 b65 * b76 + 24 b65 * b77 + 26 b65 * b78 + 28 b65 * b79 + 30 b65 * b80 + 32 b65 * b81 + 2 b66 * b67 
  + 4 b66 * b68 + 6 b66 * b69 + 8 b66 * b70 + 10 b66 * b71 + 12 b66 * b72 + 14 b66 * b73 + 16 b66 * b74 
  + 18 b66 * b75 + 20 b66 * b76 + 22 b66 * b77 + 24 b66 * b78 + 26 b66 * b79 + 28 b66 * b80 + 30 b66 * b81 
  + 2 b67 * b68 + 4 b67 * b69 + 6 b67 * b70 + 8 b67 * b71 + 10 b67 * b72 + 12 b67 * b73 + 14 b67 * b74 
  + 16 b67 * b75 + 18 b67 * b76 + 20 b67 * b77 + 22 b67 * b78 + 24 b67 * b79 + 26 b67 * b80 + 28 b67 * b81 
  + 2 b68 * b69 + 4 b68 * b70 + 6 b68 * b71 + 8 b68 * b72 + 10 b68 * b73 + 12 b68 * b74 + 14 b68 * b75 
  + 16 b68 * b76 + 18 b68 * b77 + 20 b68 * b78 + 22 b68 * b79 + 24 b68 * b80 + 26 b68 * b81 + 2 b69 * b70 
  + 4 b69 * b71 + 6 b69 * b72 + 8 b69 * b73 + 10 b69 * b74 + 12 b69 * b75 + 14 b69 * b76 + 16 b69 * b77 
  + 18 b69 * b78 + 20 b69 * b79 + 22 b69 * b80 + 24 b69 * b81 + 2 b70 * b71 + 4 b70 * b72 + 6 b70 * b73 
  + 8 b70 * b74 + 10 b70 * b75 + 12 b70 * b76 + 14 b70 * b77 + 16 b70 * b78 + 18 b70 * b79 + 20 b70 * b80 
  + 22 b70 * b81 + 2 b71 * b72 + 4 b71 * b73 + 6 b71 * b74 + 8 b71 * b75 + 10 b71 * b76 + 12 b71 * b77 
  + 14 b71 * b78 + 16 b71 * b79 + 18 b71 * b80 + 20 b71 * b81 + 2 b72 * b73 + 4 b72 * b74 + 6 b72 * b75 
  + 8 b72 * b76 + 10 b72 * b77 + 12 b72 * b78 + 14 b72 * b79 + 16 b72 * b80 + 18 b72 * b81 + 2 b73 * b74 
  + 4 b73 * b75 + 6 b73 * b76 + 8 b73 * b77 + 10 b73 * b78 + 12 b73 * b79 + 14 b73 * b80 + 16 b73 * b81 
  + 2 b74 * b75 + 4 b74 * b76 + 6 b74 * b77 + 8 b74 * b78 + 10 b74 * b79 + 12 b74 * b80 + 14 b74 * b81 
  + 2 b75 * b76 + 4 b75 * b77 + 6 b75 * b78 + 8 b75 * b79 + 10 b75 * b80 + 12 b75 * b81 + 2 b76 * b77 
  + 4 b76 * b78 + 6 b76 * b79 + 8 b76 * b80 + 10 b76 * b81 + 2 b77 * b78 + 4 b77 * b79 + 6 b77 * b80 
  + 8 b77 * b81 + 2 b78 * b79 + 4 b78 * b80 + 6 b78 * b81 + 2 b79 * b80 + 4 b79 * b81 + 2 b80 * b81 + 2 b82 * b83 
  + 4 b82 * b84 + 6 b82 * b85 + 8 b82 * b86 + 10 b82 * b87 + 12 b82 * b88 + 14 b82 * b89 + 16 b82 * b90 
  + 18 b82 * b91 + 20 b82 * b92 + 22 b82 * b93 + 24 b82 * b94 + 26 b82 * b95 + 28 b82 * b96 + 30 b82 * b97 
  + 32 b82 * b98 + 34 b82 * b99 + 36 b82 * b100 + 38 b82 * b101 + 40 b82 * b102 + 42 b82 * b103 + 44 b82 * b104 
  + 46 b82 * b105 + 48 b82 * b106 + 50 b82 * b107 + 52 b82 * b108 + 54 b82 * b109 + 56 b82 * b110 + 58 b82 * b111 
  + 60 b82 * b112 + 62 b82 * b113 + 64 b82 * b114 + 66 b82 * b115 + 68 b82 * b116 + 70 b82 * b117 + 72 b82 * b118 
  + 74 b82 * b119 + 76 b82 * b120 + 78 b82 * b121 + 2 b83 * b84 + 4 b83 * b85 + 6 b83 * b86 + 8 b83 * b87 
  + 10 b83 * b88 + 12 b83 * b89 + 14 b83 * b90 + 16 b83 * b91 + 18 b83 * b92 + 20 b83 * b93 + 22 b83 * b94 
  + 24 b83 * b95 + 26 b83 * b96 + 28 b83 * b97 + 30 b83 * b98 + 32 b83 * b99 + 34 b83 * b100 + 36 b83 * b101 
  + 38 b83 * b102 + 40 b83 * b103 + 42 b83 * b104 + 44 b83 * b105 + 46 b83 * b106 + 48 b83 * b107 + 50 b83 * b108 
  + 52 b83 * b109 + 54 b83 * b110 + 56 b83 * b111 + 58 b83 * b112 + 60 b83 * b113 + 62 b83 * b114 + 64 b83 * b115 
  + 66 b83 * b116 + 68 b83 * b117 + 70 b83 * b118 + 72 b83 * b119 + 74 b83 * b120 + 76 b83 * b121 + 2 b84 * b85 
  + 4 b84 * b86 + 6 b84 * b87 + 8 b84 * b88 + 10 b84 * b89 + 12 b84 * b90 + 14 b84 * b91 + 16 b84 * b92 
  + 18 b84 * b93 + 20 b84 * b94 + 22 b84 * b95 + 24 b84 * b96 + 26 b84 * b97 + 28 b84 * b98 + 30 b84 * b99 
  + 32 b84 * b100 + 34 b84 * b101 + 36 b84 * b102 + 38 b84 * b103 + 40 b84 * b104 + 42 b84 * b105 + 44 b84 * b106 
  + 46 b84 * b107 + 48 b84 * b108 + 50 b84 * b109 + 52 b84 * b110 + 54 b84 * b111 + 56 b84 * b112 + 58 b84 * b113 
  + 60 b84 * b114 + 62 b84 * b115 + 64 b84 * b116 + 66 b84 * b117 + 68 b84 * b118 + 70 b84 * b119 + 72 b84 * b120 
  + 74 b84 * b121 + 2 b85 * b86 + 4 b85 * b87 + 6 b85 * b88 + 8 b85 * b89 + 10 b85 * b90 + 12 b85 * b91 
  + 14 b85 * b92 + 16 b85 * b93 + 18 b85 * b94 + 20 b85 * b95 + 22 b85 * b96 + 24 b85 * b97 + 26 b85 * b98 
  + 28 b85 * b99 + 30 b85 * b100 + 32 b85 * b101 + 34 b85 * b102 + 36 b85 * b103 + 38 b85 * b104 + 40 b85 * b105 
  + 42 b85 * b106 + 44 b85 * b107 + 46 b85 * b108 + 48 b85 * b109 + 50 b85 * b110 + 52 b85 * b111 + 54 b85 * b112 
  + 56 b85 * b113 + 58 b85 * b114 + 60 b85 * b115 + 62 b85 * b116 + 64 b85 * b117 + 66 b85 * b118 + 68 b85 * b119 
  + 70 b85 * b120 + 72 b85 * b121 + 2 b86 * b87 + 4 b86 * b88 + 6 b86 * b89 + 8 b86 * b90 + 10 b86 * b91 
  + 12 b86 * b92 + 14 b86 * b93 + 16 b86 * b94 + 18 b86 * b95 + 20 b86 * b96 + 22 b86 * b97 + 24 b86 * b98 
  + 26 b86 * b99 + 28 b86 * b100 + 30 b86 * b101 + 32 b86 * b102 + 34 b86 * b103 + 36 b86 * b104 + 38 b86 * b105 
  + 40 b86 * b106 + 42 b86 * b107 + 44 b86 * b108 + 46 b86 * b109 + 48 b86 * b110 + 50 b86 * b111 + 52 b86 * b112 
  + 54 b86 * b113 + 56 b86 * b114 + 58 b86 * b115 + 60 b86 * b116 + 62 b86 * b117 + 64 b86 * b118 + 66 b86 * b119 
  + 68 b86 * b120 + 70 b86 * b121 + 2 b87 * b88 + 4 b87 * b89 + 6 b87 * b90 + 8 b87 * b91 + 10 b87 * b92 
  + 12 b87 * b93 + 14 b87 * b94 + 16 b87 * b95 + 18 b87 * b96 + 20 b87 * b97 + 22 b87 * b98 + 24 b87 * b99 
  + 26 b87 * b100 + 28 b87 * b101 + 30 b87 * b102 + 32 b87 * b103 + 34 b87 * b104 + 36 b87 * b105 + 38 b87 * b106 
  + 40 b87 * b107 + 42 b87 * b108 + 44 b87 * b109 + 46 b87 * b110 + 48 b87 * b111 + 50 b87 * b112 + 52 b87 * b113 
  + 54 b87 * b114 + 56 b87 * b115 + 58 b87 * b116 + 60 b87 * b117 + 62 b87 * b118 + 64 b87 * b119 + 66 b87 * b120 
  + 68 b87 * b121 + 2 b88 * b89 + 4 b88 * b90 + 6 b88 * b91 + 8 b88 * b92 + 10 b88 * b93 + 12 b88 * b94 
  + 14 b88 * b95 + 16 b88 * b96 + 18 b88 * b97 + 20 b88 * b98 + 22 b88 * b99 + 24 b88 * b100 + 26 b88 * b101 
  + 28 b88 * b102 + 30 b88 * b103 + 32 b88 * b104 + 34 b88 * b105 + 36 b88 * b106 + 38 b88 * b107 + 40 b88 * b108 
  + 42 b88 * b109 + 44 b88 * b110 + 46 b88 * b111 + 48 b88 * b112 + 50 b88 * b113 + 52 b88 * b114 + 54 b88 * b115 
  + 56 b88 * b116 + 58 b88 * b117 + 60 b88 * b118 + 62 b88 * b119 + 64 b88 * b120 + 66 b88 * b121 + 2 b89 * b90 
  + 4 b89 * b91 + 6 b89 * b92 + 8 b89 * b93 + 10 b89 * b94 + 12 b89 * b95 + 14 b89 * b96 + 16 b89 * b97 
  + 18 b89 * b98 + 20 b89 * b99 + 22 b89 * b100 + 24 b89 * b101 + 26 b89 * b102 + 28 b89 * b103 + 30 b89 * b104 
  + 32 b89 * b105 + 34 b89 * b106 + 36 b89 * b107 + 38 b89 * b108 + 40 b89 * b109 + 42 b89 * b110 + 44 b89 * b111 
  + 46 b89 * b112 + 48 b89 * b113 + 50 b89 * b114 + 52 b89 * b115 + 54 b89 * b116 + 56 b89 * b117 + 58 b89 * b118 
  + 60 b89 * b119 + 62 b89 * b120 + 64 b89 * b121 + 2 b90 * b91 + 4 b90 * b92 + 6 b90 * b93 + 8 b90 * b94 
  + 10 b90 * b95 + 12 b90 * b96 + 14 b90 * b97 + 16 b90 * b98 + 18 b90 * b99 + 20 b90 * b100 + 22 b90 * b101 
  + 24 b90 * b102 + 26 b90 * b103 + 28 b90 * b104 + 30 b90 * b105 + 32 b90 * b106 + 34 b90 * b107 + 36 b90 * b108 
  + 38 b90 * b109 + 40 b90 * b110 + 42 b90 * b111 + 44 b90 * b112 + 46 b90 * b113 + 48 b90 * b114 + 50 b90 * b115 
  + 52 b90 * b116 + 54 b90 * b117 + 56 b90 * b118 + 58 b90 * b119 + 60 b90 * b120 + 62 b90 * b121 + 2 b91 * b92 
  + 4 b91 * b93 + 6 b91 * b94 + 8 b91 * b95 + 10 b91 * b96 + 12 b91 * b97 + 14 b91 * b98 + 16 b91 * b99 
  + 18 b91 * b100 + 20 b91 * b101 + 22 b91 * b102 + 24 b91 * b103 + 26 b91 * b104 + 28 b91 * b105 + 30 b91 * b106 
  + 32 b91 * b107 + 34 b91 * b108 + 36 b91 * b109 + 38 b91 * b110 + 40 b91 * b111 + 42 b91 * b112 + 44 b91 * b113 
  + 46 b91 * b114 + 48 b91 * b115 + 50 b91 * b116 + 52 b91 * b117 + 54 b91 * b118 + 56 b91 * b119 + 58 b91 * b120 
  + 60 b91 * b121 + 2 b92 * b93 + 4 b92 * b94 + 6 b92 * b95 + 8 b92 * b96 + 10 b92 * b97 + 12 b92 * b98 
  + 14 b92 * b99 + 16 b92 * b100 + 18 b92 * b101 + 20 b92 * b102 + 22 b92 * b103 + 24 b92 * b104 + 26 b92 * b105 
  + 28 b92 * b106 + 30 b92 * b107 + 32 b92 * b108 + 34 b92 * b109 + 36 b92 * b110 + 38 b92 * b111 + 40 b92 * b112 
  + 42 b92 * b113 + 44 b92 * b114 + 46 b92 * b115 + 48 b92 * b116 + 50 b92 * b117 + 52 b92 * b118 + 54 b92 * b119 
  + 56 b92 * b120 + 58 b92 * b121 + 2 b93 * b94 + 4 b93 * b95 + 6 b93 * b96 + 8 b93 * b97 + 10 b93 * b98 
  + 12 b93 * b99 + 14 b93 * b100 + 16 b93 * b101 + 18 b93 * b102 + 20 b93 * b103 + 22 b93 * b104 + 24 b93 * b105 
  + 26 b93 * b106 + 28 b93 * b107 + 30 b93 * b108 + 32 b93 * b109 + 34 b93 * b110 + 36 b93 * b111 + 38 b93 * b112 
  + 40 b93 * b113 + 42 b93 * b114 + 44 b93 * b115 + 46 b93 * b116 + 48 b93 * b117 + 50 b93 * b118 + 52 b93 * b119 
  + 54 b93 * b120 + 56 b93 * b121 + 2 b94 * b95 + 4 b94 * b96 + 6 b94 * b97 + 8 b94 * b98 + 10 b94 * b99 
  + 12 b94 * b100 + 14 b94 * b101 + 16 b94 * b102 + 18 b94 * b103 + 20 b94 * b104 + 22 b94 * b105 + 24 b94 * b106 
  + 26 b94 * b107 + 28 b94 * b108 + 30 b94 * b109 + 32 b94 * b110 + 34 b94 * b111 + 36 b94 * b112 + 38 b94 * b113 
  + 40 b94 * b114 + 42 b94 * b115 + 44 b94 * b116 + 46 b94 * b117 + 48 b94 * b118 + 50 b94 * b119 + 52 b94 * b120 
  + 54 b94 * b121 + 2 b95 * b96 + 4 b95 * b97 + 6 b95 * b98 + 8 b95 * b99 + 10 b95 * b100 + 12 b95 * b101 
  + 14 b95 * b102 + 16 b95 * b103 + 18 b95 * b104 + 20 b95 * b105 + 22 b95 * b106 + 24 b95 * b107 + 26 b95 * b108 
  + 28 b95 * b109 + 30 b95 * b110 + 32 b95 * b111 + 34 b95 * b112 + 36 b95 * b113 + 38 b95 * b114 + 40 b95 * b115 
  + 42 b95 * b116 + 44 b95 * b117 + 46 b95 * b118 + 48 b95 * b119 + 50 b95 * b120 + 52 b95 * b121 + 2 b96 * b97 
  + 4 b96 * b98 + 6 b96 * b99 + 8 b96 * b100 + 10 b96 * b101 + 12 b96 * b102 + 14 b96 * b103 + 16 b96 * b104 
  + 18 b96 * b105 + 20 b96 * b106 + 22 b96 * b107 + 24 b96 * b108 + 26 b96 * b109 + 28 b96 * b110 + 30 b96 * b111 
  + 32 b96 * b112 + 34 b96 * b113 + 36 b96 * b114 + 38 b96 * b115 + 40 b96 * b116 + 42 b96 * b117 + 44 b96 * b118 
  + 46 b96 * b119 + 48 b96 * b120 + 50 b96 * b121 + 2 b97 * b98 + 4 b97 * b99 + 6 b97 * b100 + 8 b97 * b101 
  + 10 b97 * b102 + 12 b97 * b103 + 14 b97 * b104 + 16 b97 * b105 + 18 b97 * b106 + 20 b97 * b107 + 22 b97 * b108 
  + 24 b97 * b109 + 26 b97 * b110 + 28 b97 * b111 + 30 b97 * b112 + 32 b97 * b113 + 34 b97 * b114 + 36 b97 * b115 
  + 38 b97 * b116 + 40 b97 * b117 + 42 b97 * b118 + 44 b97 * b119 + 46 b97 * b120 + 48 b97 * b121 + 2 b98 * b99 
  + 4 b98 * b100 + 6 b98 * b101 + 8 b98 * b102 + 10 b98 * b103 + 12 b98 * b104 + 14 b98 * b105 + 16 b98 * b106 
  + 18 b98 * b107 + 20 b98 * b108 + 22 b98 * b109 + 24 b98 * b110 + 26 b98 * b111 + 28 b98 * b112 + 30 b98 * b113 
  + 32 b98 * b114 + 34 b98 * b115 + 36 b98 * b116 + 38 b98 * b117 + 40 b98 * b118 + 42 b98 * b119 + 44 b98 * b120 
  + 46 b98 * b121 + 2 b99 * b100 + 4 b99 * b101 + 6 b99 * b102 + 8 b99 * b103 + 10 b99 * b104 + 12 b99 * b105 
  + 14 b99 * b106 + 16 b99 * b107 + 18 b99 * b108 + 20 b99 * b109 + 22 b99 * b110 + 24 b99 * b111 + 26 b99 * b112 
  + 28 b99 * b113 + 30 b99 * b114 + 32 b99 * b115 + 34 b99 * b116 + 36 b99 * b117 + 38 b99 * b118 + 40 b99 * b119 
  + 42 b99 * b120 + 44 b99 * b121 + 2 b100 * b101 + 4 b100 * b102 + 6 b100 * b103 + 8 b100 * b104 + 10 b100 * b105 
  + 12 b100 * b106 + 14 b100 * b107 + 16 b100 * b108 + 18 b100 * b109 + 20 b100 * b110 + 22 b100 * b111 
  + 24 b100 * b112 + 26 b100 * b113 + 28 b100 * b114 + 30 b100 * b115 + 32 b100 * b116 + 34 b100 * b117 
  + 36 b100 * b118 + 38 b100 * b119 + 40 b100 * b120 + 42 b100 * b121 + 2 b101 * b102 + 4 b101 * b103 
  + 6 b101 * b104 + 8 b101 * b105 + 10 b101 * b106 + 12 b101 * b107 + 14 b101 * b108 + 16 b101 * b109 
  + 18 b101 * b110 + 20 b101 * b111 + 22 b101 * b112 + 24 b101 * b113 + 26 b101 * b114 + 28 b101 * b115 
  + 30 b101 * b116 + 32 b101 * b117 + 34 b101 * b118 + 36 b101 * b119 + 38 b101 * b120 + 40 b101 * b121 
  + 2 b102 * b103 + 4 b102 * b104 + 6 b102 * b105 + 8 b102 * b106 + 10 b102 * b107 + 12 b102 * b108 + 14 b102 * b109 
  + 16 b102 * b110 + 18 b102 * b111 + 20 b102 * b112 + 22 b102 * b113 + 24 b102 * b114 + 26 b102 * b115 
  + 28 b102 * b116 + 30 b102 * b117 + 32 b102 * b118 + 34 b102 * b119 + 36 b102 * b120 + 38 b102 * b121 
  + 2 b103 * b104 + 4 b103 * b105 + 6 b103 * b106 + 8 b103 * b107 + 10 b103 * b108 + 12 b103 * b109 + 14 b103 * b110 
  + 16 b103 * b111 + 18 b103 * b112 + 20 b103 * b113 + 22 b103 * b114 + 24 b103 * b115 + 26 b103 * b116 
  + 28 b103 * b117 + 30 b103 * b118 + 32 b103 * b119 + 34 b103 * b120 + 36 b103 * b121 + 2 b104 * b105 
  + 4 b104 * b106 + 6 b104 * b107 + 8 b104 * b108 + 10 b104 * b109 + 12 b104 * b110 + 14 b104 * b111 
  + 16 b104 * b112 + 18 b104 * b113 + 20 b104 * b114 + 22 b104 * b115 + 24 b104 * b116 + 26 b104 * b117 
  + 28 b104 * b118 + 30 b104 * b119 + 32 b104 * b120 + 34 b104 * b121 + 2 b105 * b106 + 4 b105 * b107 
  + 6 b105 * b108 + 8 b105 * b109 + 10 b105 * b110 + 12 b105 * b111 + 14 b105 * b112 + 16 b105 * b113 
  + 18 b105 * b114 + 20 b105 * b115 + 22 b105 * b116 + 24 b105 * b117 + 26 b105 * b118 + 28 b105 * b119 
  + 30 b105 * b120 + 32 b105 * b121 + 2 b106 * b107 + 4 b106 * b108 + 6 b106 * b109 + 8 b106 * b110 + 10 b106 * b111 
  + 12 b106 * b112 + 14 b106 * b113 + 16 b106 * b114 + 18 b106 * b115 + 20 b106 * b116 + 22 b106 * b117 
  + 24 b106 * b118 + 26 b106 * b119 + 28 b106 * b120 + 30 b106 * b121 + 2 b107 * b108 + 4 b107 * b109 
  + 6 b107 * b110 + 8 b107 * b111 + 10 b107 * b112 + 12 b107 * b113 + 14 b107 * b114 + 16 b107 * b115 
  + 18 b107 * b116 + 20 b107 * b117 + 22 b107 * b118 + 24 b107 * b119 + 26 b107 * b120 + 28 b107 * b121 
  + 2 b108 * b109 + 4 b108 * b110 + 6 b108 * b111 + 8 b108 * b112 + 10 b108 * b113 + 12 b108 * b114 + 14 b108 * b115 
  + 16 b108 * b116 + 18 b108 * b117 + 20 b108 * b118 + 22 b108 * b119 + 24 b108 * b120 + 26 b108 * b121 
  + 2 b109 * b110 + 4 b109 * b111 + 6 b109 * b112 + 8 b109 * b113 + 10 b109 * b114 + 12 b109 * b115 + 14 b109 * b116 
  + 16 b109 * b117 + 18 b109 * b118 + 20 b109 * b119 + 22 b109 * b120 + 24 b109 * b121 + 2 b110 * b111 
  + 4 b110 * b112 + 6 b110 * b113 + 8 b110 * b114 + 10 b110 * b115 + 12 b110 * b116 + 14 b110 * b117 
  + 16 b110 * b118 + 18 b110 * b119 + 20 b110 * b120 + 22 b110 * b121 + 2 b111 * b112 + 4 b111 * b113 
  + 6 b111 * b114 + 8 b111 * b115 + 10 b111 * b116 + 12 b111 * b117 + 14 b111 * b118 + 16 b111 * b119 
  + 18 b111 * b120 + 20 b111 * b121 + 2 b112 * b113 + 4 b112 * b114 + 6 b112 * b115 + 8 b112 * b116 + 10 b112 * b117 
  + 12 b112 * b118 + 14 b112 * b119 + 16 b112 * b120 + 18 b112 * b121 + 2 b113 * b114 + 4 b113 * b115 
  + 6 b113 * b116 + 8 b113 * b117 + 10 b113 * b118 + 12 b113 * b119 + 14 b113 * b120 + 16 b113 * b121 
  + 2 b114 * b115 + 4 b114 * b116 + 6 b114 * b117 + 8 b114 * b118 + 10 b114 * b119 + 12 b114 * b120 + 14 b114 * b121 
  + 2 b115 * b116 + 4 b115 * b117 + 6 b115 * b118 + 8 b115 * b119 + 10 b115 * b120 + 12 b115 * b121 + 2 b116 * b117 
  + 4 b116 * b118 + 6 b116 * b119 + 8 b116 * b120 + 10 b116 * b121 + 2 b117 * b118 + 4 b117 * b119 + 6 b117 * b120 
  + 8 b117 * b121 + 2 b118 * b119 + 4 b118 * b120 + 6 b118 * b121 + 2 b119 * b120 + 4 b119 * b121 + 2 b120 * b121 
  ]/2

Subject To
 e2: b2 + b42 + b82 = 1
 e3: b3 + b43 + b83 = 1
 e4: b4 + b44 + b84 = 1
 e5: b5 + b45 + b85 = 1
 e6: b6 + b46 + b86 = 1
 e7: b7 + b47 + b87 = 1
 e8: b8 + b48 + b88 = 1
 e9: b9 + b49 + b89 = 1
 e10: b10 + b50 + b90 = 1
 e11: b11 + b51 + b91 = 1
 e12: b12 + b52 + b92 = 1
 e13: b13 + b53 + b93 = 1
 e14: b14 + b54 + b94 = 1
 e15: b15 + b55 + b95 = 1
 e16: b16 + b56 + b96 = 1
 e17: b17 + b57 + b97 = 1
 e18: b18 + b58 + b98 = 1
 e19: b19 + b59 + b99 = 1
 e20: b20 + b60 + b100 = 1
 e21: b21 + b61 + b101 = 1
 e22: b22 + b62 + b102 = 1
 e23: b23 + b63 + b103 = 1
 e24: b24 + b64 + b104 = 1
 e25: b25 + b65 + b105 = 1
 e26: b26 + b66 + b106 = 1
 e27: b27 + b67 + b107 = 1
 e28: b28 + b68 + b108 = 1
 e29: b29 + b69 + b109 = 1
 e30: b30 + b70 + b110 = 1
 e31: b31 + b71 + b111 = 1
 e32: b32 + b72 + b112 = 1
 e33: b33 + b73 + b113 = 1
 e34: b34 + b74 + b114 = 1
 e35: b35 + b75 + b115 = 1
 e36: b36 + b76 + b116 = 1
 e37: b37 + b77 + b117 = 1
 e38: b38 + b78 + b118 = 1
 e39: b39 + b79 + b119 = 1
 e40: b40 + b80 + b120 = 1
 e41: b41 + b81 + b121 = 1

Binary
 b2 b3 b4 b5 b6 b7 b8 b9 b10 b11 b12 b13 b14 b15 b16 b17 b18 b19 b20 b21 b22 b23 b24 b25 b26
 b27 b28 b29 b30 b31 b32 b33 b34 b35 b36 b37 b38 b39 b40 b41 b42 b43 b44 b45 b46 b47 b48 b49
 b50 b51 b52 b53 b54 b55 b56 b57 b58 b59 b60 b61 b62 b63 b64 b65 b66 b67 b68 b69 b70 b71 b72
 b73 b74 b75 b76 b77 b78 b79 b80 b81 b82 b83 b84 b85 b86 b87 b88 b89 b90 b91 b92 b93 b94 b95
 b96 b97 b98 b99 b100 b101 b102 b103 b104 b105 b106 b107 b108 b109 b110 b111 b112 b113 b114
 b115 b116 b117 b118 b119 b120 b121

End
